p cnf 41 123
a 18 37 0
e 1 2 3 4 5 6 7 8 9 10 11 12 13 14 15 16 17 19 20 21 22 23 24 25 26 27 28 29 30 31 32 33 34 35 36 38 39 40 41 0
-5 -4 0
-5 -2 0
4 2 5 0
-6 -3 0
-6 5 0
3 -5 6 0
7 -2 0
7 6 0
2 -6 -7 0
1 -7 -8 0
-1 7 -8 0
1 7 8 0
-1 -7 8 0
3 9 -10 0
-3 -9 -10 0
3 -9 10 0
-3 9 10 0
11 -8 0
11 -10 0
8 10 -11 0
12 -1 0
12 5 0
1 -5 -12 0
5 -4 -13 0
-5 4 -13 0
5 4 13 0
-5 -4 13 0
12 -13 -14 0
-12 13 -14 0
12 13 14 0
-12 -13 14 0
15 4 0
15 14 0
-4 -14 -15 0
9 16 -17 0
-9 -16 -17 0
9 -16 17 0
-9 16 17 0
18 -15 0
18 -17 0
15 17 -18 0
-19 -18 0
-19 -1 0
18 1 19 0
11 19 -20 0
-11 -19 -20 0
11 -19 20 0
-11 19 20 0
21 -1 0
21 -1 0
1 -21 0
-22 -20 0
-22 21 0
20 -21 22 0
-24 -16 0
-24 -1 0
16 1 24 0
16 2 -25 0
-16 -2 -25 0
16 -2 25 0
-16 2 25 0
-25 24 -26 0
25 -24 -26 0
-25 -24 26 0
25 24 26 0
-27 24 0
-27 26 0
-24 -26 27 0
-28 -23 0
-28 -27 0
23 27 28 0
-29 22 0
-29 -28 0
-22 28 29 0
30 9 0
30 15 0
-9 -15 -30 0
31 14 -32 0
-31 -14 -32 0
31 -14 32 0
-31 14 32 0
-33 -30 0
-33 32 0
30 -32 33 0
34 -3 0
34 12 0
3 -12 -34 0
34 -35 0
-34 -35 0
-4 -1 -36 0
4 1 -36 0
-4 1 36 0
4 -1 36 0
5 -25 -37 0
-5 25 -37 0
5 25 37 0
-5 -25 37 0
36 37 -38 0
-36 -37 -38 0
36 -37 38 0
-36 37 38 0
35 38 -39 0
-35 -38 -39 0
35 -38 39 0
-35 38 39 0
40 33 0
40 39 0
-33 -39 -40 0
41 29 0
41 -40 0
-29 40 -41 0
26 6 -41 -4 -7 0
-35 39 7 -18 0
-6 -10 13 39 -16 26 0
-20 -19 -30 2 8 0
-20 1 15 9 -30 -23 -3 0
2 28 -14 23 0
33 19 26 0
-11 -12 34 3 0
-16 30 27 35 -7 0
-29 9 -15 23 -8 -41 36 -39 0
-37 -29 14 -10 11 -32 -19 16 0
41 0
